5 63
26 32
65 14
67 97
60 54
21 74
23 45
22 31
33 6
90 64
77 17
18 98
76 4
22 23
48 32
40 17
12 6
11 52
14 61
17 44
49 83
65 20
86 92
83 31
83 85
86 93
45 44
69 98
16 0
75 55
3 69
99 21
68 0
6 94
68 46
86 29
32 42
98 56
43 69
25 54
13 7
43 86
51 46
93 64
9 89
4 44
12 92
41 13
86 35
77 46
41 38
15 19
73 76
73 49
6 89
22 48
69 80
36 28
68 37
80 58
